n = 8;
m = 7;
dias_regimen_alto_permitidos = 1;
porcentaje_regimen_alto = 55;
capacidad = [1000, 300, 500];
costo_produccion = [75, 45, 55];
demanda = [| 150, 140, 130, 120, 110, 100, 90, 80
           | 90, 80, 70, 60, 100, 90, 80, 70
           | 80, 70, 60, 50, 100, 90, 100, 110
           | 70, 60, 50, 100, 90, 80, 70, 60
           | 60, 50, 100, 90, 80, 70, 60, 50
           | 50, 100, 90, 80, 70, 60, 50, 100
           | 690, 680, 670, 660, 650, 600, 690, 680 |];
pago_por_mw = [90, 80, 70, 90, 80, 70, 80];
G = 65;
